%NProcShared=2
#n B3LYP/6-31G(d) Opt

 Title

0 1
C         62.70900       34.90200       41.04700
C         63.76400       34.97700       39.97600
C         64.18300       33.60900       39.48500
O         63.56000       32.61200       39.90000
O         65.11800       33.54200       38.66100
C         66.07700       29.00700       31.82800
C         67.06700       29.42700       32.87500
C         68.33600       28.84800       32.94800
C         66.74700       30.43500       33.77800
C         69.25200       29.27400       33.90600
C         67.65000       30.86100       34.72800
C         68.89400       30.27900       34.79000
O         69.77400       30.67600       35.75700
C         69.62200       34.95700       36.20600
C         69.56400       33.44800       36.05800
C         68.58100       32.78500       37.02500
O         69.18200       32.19100       38.25000
O         67.38400       32.82100       36.62800
C         67.84200       31.78300       38.37300
C         67.88000       31.94300       39.93000
C         69.05400       31.11300       40.48900
O         68.99400       31.18800       41.90400
C         69.00000       29.62000       40.04500
O         70.16200       28.90500       40.51700
C         68.82000       29.57400       38.49000
O         67.68600       30.37800       38.09900
C         68.60800       28.18900       37.87200
O         67.52400       27.50500       38.49000
F         67.93100       33.33700       40.38300
H         62.44740       35.89120       41.35990
H         63.08790       34.35200       41.88300
H         61.84170       34.40950       40.65950
H         66.49880       28.22530       31.23140
H         65.84090       29.84380       31.20430
H         65.18550       28.65250       32.30180
H         70.32420       35.35740       35.50500
H         69.92890       35.20630       37.20030
H         68.65370       35.37140       36.01710
H         63.37610       35.53510       39.14960
H         64.62540       35.45090       40.39820
H         62.86520       32.71820       40.51960
H         68.59640       28.09930       32.28720
H         65.81360       30.87330       33.73590
H         70.18920       28.84510       33.95720
H         67.39410       31.61170       35.38830
H         70.62390       30.28450       35.80630
H         70.54060       33.05060       36.24020
H         69.22370       33.23870       35.06540
H         66.95470       31.57090       40.31760
H         69.96930       31.51380       40.10620
H         68.15270       30.81630       42.21210
H         68.16300       29.11950       40.48520
H         70.96280       29.31200       40.15100
H         69.75490       29.94190       38.12170
H         69.50030       27.61180       37.99680
H         68.37910       28.31480       36.83440
H         67.71480       27.38210       39.43310

